10	5
0	3	2	3	1
1	1	7
2	5	7	5	10	9	8
3	3	8	4	9
4	3	5	10	7
5	0
6	2	11	5
7	1	11
8	1	11
9	1	11
10	1	11
11	0
0	0	0	0	0	0	0
1	8	0	4	0	4	5
2	6	2	2	1	1	1
3	3	0	3	0	3	0
4	9	0	4	4	0	4
5	2	1	4	0	0	0
6	7	5	0	0	5	0
7	2	0	1	0	3	3
8	10	0	0	3	1	0
9	5	0	5	3	0	0
10	7	0	0	0	1	0
11	0	0	0	0	0	0
5	5	5	5	5
